c all_slices.cnf
p cnf 106 48
-17 104 0
17 -104 0
-14 103 0
14 -103 0
-13 102 0
13 -102 0
-16 105 0
16 -105 0
-10 101 0
10 -101 0
-15 106 0
15 -106 0
 -14  -15 0
 10  -15 0
 -13  -14 0
 10  -16 0
 -13  -16 0
 -14  -17 0
 10  -17 0
 16  15  17  -10  14  13 0
 10  -14 0
 -10  1 0
 -13  -15 0
 -16  -17 0
 10  -13 0
 -15  -17 0
 -13  -17 0
 -14  -16 0
 10  -1 0
 -15  -16 0
1 0
101  -104 0
 -102  -103 0
 101 0
 -103  -105 0
 -104  -105 0
 -104  -106 0
 -105  -106 0
 101  -103 0
 101  -102 0
 101  -106 0
 -102  -105 0
 104  102  106  105  -101  103 0
 101  -105 0
 -103  -104 0
 -102  -104 0
 -102  -106 0
 -103  -106
